(set-logic QF_S)
(declare-fun var0 () String)
(declare-fun var1 () String)
(declare-fun var2 () String)
(declare-fun var3 () String)
(declare-fun var4 () String)
(declare-fun var5 () String)
(declare-fun var6 () String)
(declare-fun var7 () String)
(declare-fun var8 () String)
(declare-fun var9 () String)
(declare-fun var10 () String)
(declare-fun var11 () String)
(declare-fun var12 () String)
(declare-fun var13 () String)
(declare-fun var14 () String)
(declare-fun var15 () String)
(declare-fun var16 () String)
(declare-fun var17 () String)
(declare-fun var18 () String)
(declare-fun var19 () String)
(declare-fun var20 () String)
(declare-fun var21 () String)
(declare-fun var22 () String)
(declare-fun var23 () String)
(declare-fun var24 () String)
(declare-fun var25 () String)
(declare-fun var26 () String)
(declare-fun var27 () String)
(declare-fun var28 () String)
(declare-fun var29 () String)
(declare-fun var30 () String)
(declare-fun var31 () String)
(declare-fun var32 () String)
(declare-fun var33 () String)
(declare-fun var34 () String)
(declare-fun var35 () String)
(declare-fun var36 () String)
(declare-fun var37 () String)
(declare-fun var38 () String)
(declare-fun var39 () String)
(declare-fun var40 () String)
(declare-fun var41 () String)
(declare-fun var42 () String)
(declare-fun var43 () String)
(declare-fun var44 () String)
(declare-fun var45 () String)
(declare-fun var46 () String)
(declare-fun var47 () String)
(declare-fun var48 () String)
(declare-fun var49 () String)
(assert (= 82 (str.len var0)))
(assert (= 72 (str.len var1)))
(assert (= 26 (str.len var2)))
(assert (= 75 (str.len var3)))
(assert (= 17 (str.len var4)))
(assert (= 85 (str.len var5)))
(assert (= 67 (str.len var6)))
(assert (= 36 (str.len var7)))
(assert (= 83 (str.len var8)))
(assert (= 10 (str.len var9)))
(assert (= 22 (str.len var10)))
(assert (= 93 (str.len var11)))
(assert (= 0 (str.len var12)))
(assert (= 71 (str.len var13)))
(assert (= 74 (str.len var14)))
(assert (= 93 (str.len var15)))
(assert (= 98 (str.len var16)))
(assert (= 86 (str.len var17)))
(assert (= 88 (str.len var18)))
(assert (= 68 (str.len var19)))
(assert (= 58 (str.len var20)))
(assert (= 71 (str.len var21)))
(assert (= 61 (str.len var22)))
(assert (= 35 (str.len var23)))
(assert (= 23 (str.len var24)))
(assert (= 0 (str.len var25)))
(assert (= 82 (str.len var26)))
(assert (= 55 (str.len var27)))
(assert (= 45 (str.len var28)))
(assert (= 38 (str.len var29)))
(assert (= 55 (str.len var30)))
(assert (= 6 (str.len var31)))
(assert (= 89 (str.len var32)))
(assert (= 4 (str.len var33)))
(assert (= 5 (str.len var34)))
(assert (= 31 (str.len var35)))
(assert (= 54 (str.len var36)))
(assert (= 98 (str.len var37)))
(assert (= 83 (str.len var38)))
(assert (= 11 (str.len var39)))
(assert (= 5 (str.len var40)))
(assert (= 48 (str.len var41)))
(assert (= 60 (str.len var42)))
(assert (= 76 (str.len var43)))
(assert (= 26 (str.len var44)))
(assert (= 14 (str.len var45)))
(assert (= 34 (str.len var46)))
(assert (= 2 (str.len var47)))
(assert (= 22 (str.len var48)))
(assert (= 60 (str.len var49)))
(assert (= 158 (str.len (str.++ var38 var3))))
(assert (= 89 (str.len (str.++ var4 var1))))
(assert (= 108 (str.len (str.++ var16 var9))))
(assert (= 67 (str.len (str.++ var28 var10))))
(assert (= 164 (str.len (str.++ var13 var15))))
(check-sat)